(set-info :origin "driver benchmark extracted from Microsoft SDV")
(set-logic HORN)
(declare-fun Proc8 (Int Int Bool Int Int Int) Bool)
(declare-fun Proc1 (Int Int Bool Int Int Int Int Int Int Int Int) Bool)
(declare-fun Proc6 (Int Int Bool Int Int) Bool)
(declare-fun Proc10 (Int Int Bool Int Int Int) Bool)
(declare-fun Proc12 (Int Int Bool Int Int Int Int) Bool)
(declare-fun Proc34 (Int Int Bool Int) Bool)
(declare-fun Proc26 (Int Int Bool Int) Bool)
(declare-fun Proc24 (Int Int Bool) Bool)
(declare-fun Proc45 (Int Int Bool Int Int Int Int) Bool)
(declare-fun Proc14 (Int Int Bool) Bool)
(declare-fun Proc25 (Int Int Bool Int) Bool)
(declare-fun Proc40 (Int Int Bool Int) Bool)
(declare-fun Proc36 (Int Int Bool Int) Bool)
(declare-fun Proc15 (Int Int Bool Int Int) Bool)
(declare-fun Proc13 (Int Int Bool Int Int Int Int) Bool)
(declare-fun Proc5 (Int Int Bool Int Int Int Int Int Int Int) Bool)
(declare-fun Proc9 (Int Int Bool Int) Bool)
(declare-fun Proc17 (Int Int Bool Int Int) Bool)
(declare-fun Proc38 (Int Int Bool Int) Bool)
(declare-fun Proc42 (Int Int Bool Int) Bool)
(declare-fun Proc11 (Int Int Bool Int Int) Bool)
(declare-fun Proc33 (Int Int Bool Int) Bool)
(declare-fun Proc39 (Int Int Bool Int) Bool)
(declare-fun Proc44 (Int Int Bool Int Int) Bool)
(declare-fun Proc35 (Int Int Bool Int) Bool)
(declare-fun Proc2 (Int Int Bool Int Int Int) Bool)
(declare-fun Proc27 (Int Int Bool Int Int) Bool)
(declare-fun Proc29 (Int Int Bool Int Int Int) Bool)
(declare-fun Proc18 (Int Int Bool Int Int Int Int) Bool)
(declare-fun Proc43 (Int Int Bool) Bool)
(declare-fun Proc31 (Int Int Bool Int) Bool)
(declare-fun Proc19 (Int Int Bool Int Int Int) Bool)
(declare-fun Proc46 (Int Int Bool) Bool)
(declare-fun Proc0 (Int Int Bool Int Int) Bool)
(declare-fun Proc47 (Int Int Bool) Bool)
(declare-fun Proc30 (Int Int Bool Int) Bool)
(declare-fun Proc20 (Int Int Bool Int Int Int) Bool)
(declare-fun Proc23 (Int Int Bool) Bool)
(declare-fun Proc48 (Int Int Bool Int Int) Bool)
(declare-fun Proc37 (Int Int Bool Int) Bool)
(declare-fun Proc4 (Int Int Bool Int Int Int Int) Bool)
(declare-fun Proc22 (Int Int Bool Int Int) Bool)
(declare-fun Proc49 (Int Int Bool Int Int) Bool)
(declare-fun Proc3 (Int Int Bool Int) Bool)
(declare-fun Proc7 (Int Int Bool Int) Bool)
(declare-fun Proc21 (Int Int Bool Int Int Int Int) Bool)
(declare-fun Proc50 (Int Int Bool) Bool)
(declare-fun Proc41 (Int Int Bool Int) Bool)
(declare-fun Proc51 (Int Int Bool Int Bool Int Int) Bool)
(declare-fun Proc32 (Int Int Bool Int) Bool)
(declare-fun Proc16 (Int Int Bool Int Int Int) Bool)
(declare-fun Proc28 (Int Int Bool Int Int Bool Int) Bool)
(assert (forall ((A Int)
         (B Int)
         (C Int)
         (D Int)
         (E Int)
         (F Int)
         (G Int)
         (H Int)
         (I Int)
         (J Int)
         (K Int)
         (L Int)
         (M Int)
         (N Int)
         (O Int)
         (P Int)
         (Q Int)
         (R Int)
         (S Int)
         (T Int)
         (U Int)
         (V Int)
         (W Int)
         (X Int)
         (Y Int)
         (Z Int)
         (A1 Int)
         (B1 Int)
         (C1 Int)
         (D1 Int)
         (E1 Bool))
  (let ((a!1 (and (not (<= B1 (+ 4 D1)))
                  (not (<= B1 C1))
                  (= A1 B1)
                  (not (<= Z (+ 12 A1)))
                  (not (<= Z B1))
                  (= Y Z)
                  (not (<= X (+ 12 Y)))
                  (not (<= X Z))))
        (a!2 (and (not (<= V (+ 1 W))) (not (<= V X))))
        (a!3 (and (not (<= T (+ 1 U))) (not (<= T V))))
        (a!4 (and (not (<= R (+ 1 S))) (not (<= R T))))
        (a!5 (and (not (<= P (+ 1 Q))) (not (<= P R))))
        (a!6 (or (<= 0 M)
                 (not (and (= L M) (= K P)))
                 (not (and (= J L) (= I K)))))
        (a!7 (and (not (<= D (+ 1 E))) (not (<= D P))))
        (a!8 (or (<= 0 C)
                 (not (Proc3 D O E1 B))
                 (not (and (= L C) (= K D)))
                 (not (and (= J L) (= I K)))))
        (a!9 (or (not (<= 0 C))
                 (not (and (= L C) (= K D)))
                 (not (and (= J L) (= I K))))))
  (let ((a!10 (and a!6
                   (or (not (<= 0 M))
                       (= N 0)
                       (= H 0)
                       (= G 0)
                       (= F 0)
                       (not (= E P))
                       (not a!7)
                       (not (Proc0 D O E1 Y E))
                       (not (Proc2 D O E1 Y A1 C))
                       (and a!8 a!9)))))
  (let ((a!11 (not (or (not E1)
                       (not (= D1 C1))
                       (not a!1)
                       (not (= W X))
                       (not a!2)
                       (not (= U V))
                       (not a!3)
                       (not (= S T))
                       (not a!4)
                       (not (= Q R))
                       (not a!5)
                       (not (Proc0 P O E1 A1 Q))
                       (not (Proc1 P O E1 N 0 A1 34 256 0 D1 M))
                       a!10))))
    (=> a!11 (Proc4 C1 O E1 N A J I)))))))
(assert (forall ((A Int)
         (B Int)
         (C Int)
         (D Int)
         (E Int)
         (F Int)
         (G Int)
         (H Int)
         (I Int)
         (J Int)
         (K Int)
         (L Int)
         (M Int)
         (E1 Bool))
  (let ((a!1 (or (not (and (= M L) (= K 0))) (not (and (= J K) (= I M)))))
        (a!2 (and (not (<= G (+ 1 H))) (not (<= G L)))))
  (let ((a!3 (or (not (= H L))
                 (not a!2)
                 (not (and (= M G) (= K H)))
                 (not (and (= J K) (= I M))))))
    (=> (not (or (not E1) (and a!1 a!3))) (Proc5 L F E1 E D C B A J I))))))
(assert (forall ((A Int)
         (B Int)
         (C Int)
         (D Int)
         (E Int)
         (F Int)
         (G Int)
         (H Int)
         (I Int)
         (J Int)
         (K Int)
         (L Int)
         (M Int)
         (N Int)
         (O Int)
         (E1 Bool))
  (let ((a!1 (not (and (= L (- 1073741823)) (= N L))))
        (a!2 (not (and (= K (- 1073741670)) (= N K))))
        (a!3 (not (and (= J (- 1073741771)) (= N J))))
        (a!4 (not (and (= I (- 1073741824)) (= N I)))))
  (let ((a!5 (and (or (= O 0) (not (= N 0)) (not (= M N)))
                  (or (= O 0) a!1 (not (= M N)))
                  (or (= O 0) a!2 (not (= M N)))
                  (or (= O 0) a!3 (not (= M N)))
                  (or (= O 0) a!4 (not (= M N))))))
    (=> (not (or (not E1) a!5)) (Proc1 H G E1 F E D C B A O M))))))
(assert (forall ((A Int) (B Int) (C Int) (D Int) (E Int) (F Int) (G Int) (E1 Bool))
  (let ((a!1 (not (and (= G (- 1073741823)) (= F G)))))
  (let ((a!2 (and (or a!1 (not (= E F))) (or (not (= F 0)) (not (= E F))))))
    (=> (not (or (not E1) a!2)) (Proc2 D C E1 B A E))))))
(assert (forall ((A Int) (B Int) (C Int) (E1 Bool)) (=> E1 (Proc3 C B E1 A))))
(assert (forall ((A Int) (B Int) (C Int) (D Int) (E Int) (F Int) (E1 Bool))
  (let ((a!1 (not (and (= F (- 1073741823)) (= E F)))))
  (let ((a!2 (and (or a!1 (not (= D E))) (or (not (= E 0)) (not (= D E))))))
    (=> (not (or (not E1) a!2)) (Proc6 C B E1 A D))))))
(assert (forall ((A Int) (B Int) (C Int) (E1 Bool)) (=> E1 (Proc7 C B E1 A))))
(assert (forall ((A Int) (B Int) (C Int) (D Int) (E Int) (E1 Bool))
  (=> E1 (Proc8 E D E1 C B A))))
(assert (forall ((A Int) (B Int) (C Int) (E1 Bool)) (=> E1 (Proc9 C B E1 A))))
(assert (forall ((A Int) (B Int) (C Int) (D Int) (E Int) (E1 Bool))
  (=> E1 (Proc10 E D E1 C B A))))
(assert (forall ((A Int) (B Int) (C Int) (D Int) (E1 Bool))
  (let ((a!1 (and (= C 0) (or (not (= C 0)) (= D 0)))))
  (let ((a!2 (and (or (= D 0) a!1) (or (not (= D 0)) a!1))))
    (=> (not (or (not E1) a!2)) (Proc0 B A E1 D C))))))
(assert (forall ((A Int)
         (B Int)
         (C Int)
         (D Int)
         (E Int)
         (F Int)
         (G Int)
         (H Int)
         (I Int)
         (E1 Bool))
  (let ((a!1 (and (not (<= G (+ 1 I))) (not (<= G H)))))
  (let ((a!2 (or (not E1)
                 (not (= I H))
                 (not a!1)
                 (not (Proc11 G F E1 I E))
                 (not (and (= D G) (= C E))))))
    (=> (not a!2) (Proc12 H F E1 B A D C))))))
(assert (forall ((A Int) (B Int) (C Int) (D Int) (E1 Bool))
  (let ((a!1 (not (or (not E1) (not (= D 1))))))
    (=> a!1 (Proc11 C B E1 A D)))))
(assert (forall ((A Int)
         (B Int)
         (C Int)
         (D Int)
         (E Int)
         (F Int)
         (G Int)
         (H Int)
         (I Int)
         (J Int)
         (E1 Bool))
  (let ((a!1 (or (not (= E 1))
                 (not (and (= D E) (= C F)))
                 (not (and (= B C) (= A D)))))
        (a!2 (or (= E 1)
                 (not (and (= D E) (= C F)))
                 (not (and (= B C) (= A D)))))
        (a!3 (or (not (= J 0))
                 (not (and (= D H) (= C I)))
                 (not (and (= B C) (= A D))))))
  (let ((a!4 (and (or (= J 0) (not (Proc12 I H E1 G J F E)) (and a!1 a!2)) a!3)))
    (=> (not (or (not E1) a!4)) (Proc13 I H E1 G J B A))))))
(assert (forall ((A Int) (B Int) (C Int) (D Int) (E Int) (E1 Bool))
  (let ((a!1 (not (or (not E1)
                      (not (Proc14 E D E1))
                      (= C 0)
                      (not (Proc15 E D E1 C 0))
                      (not (= B 0))))))
    (=> a!1 (Proc16 E D E1 A C B)))))
(assert (forall ((A Int)
         (B Int)
         (C Int)
         (D Int)
         (E Int)
         (F Int)
         (G Int)
         (H Int)
         (I Int)
         (J Int)
         (K Int)
         (L Int)
         (M Int)
         (N Int)
         (O Int)
         (P Int)
         (Q Int)
         (R Int)
         (S Int)
         (T Int)
         (U Int)
         (V Int)
         (W Int)
         (X Int)
         (Y Int)
         (Z Int)
         (A1 Int)
         (B1 Int)
         (C1 Int)
         (D1 Int)
         (E1 Bool)
         (F1 Int)
         (G1 Int)
         (H1 Int)
         (I1 Int)
         (J1 Int)
         (K1 Int)
         (L1 Int)
         (M1 Int)
         (N1 Int)
         (O1 Int)
         (P1 Int)
         (Q1 Int)
         (R1 Int))
  (let ((a!1 (and (not (<= P1 (+ 1 R1))) (not (<= P1 Q1))))
        (a!2 (not (and (not (= L1 0)) (Proc18 P1 M1 E1 H1 16 G1 F1))))
        (a!3 (not (and (not (= L1 0)) (Proc19 F1 M1 E1 D1 C1 B1))))
        (a!5 (or (not (= G1 0))
                 (not (= W (- 1073741670)))
                 (not (and (= A1 F1) (= Z W)))
                 (= L1 0)
                 (not (Proc15 A1 M1 E1 L1 0))
                 (not (and (= Y Z) (= X A1)))))
        (a!6 (not (and (not (= L1 0)) (Proc18 P1 M1 E1 V 16 U T))))
        (a!7 (or (not (<= O1 I1))
                 (= L1 0)
                 (not (and (= A1 T) (= Z 0)))
                 (not (Proc15 A1 M1 E1 L1 0))
                 (not (and (= Y Z) (= X A1)))))
        (a!8 (or (<= O1 I1)
                 (= L1 0)
                 (not (and (= A1 T) (= Z 0)))
                 (not (Proc15 A1 M1 E1 L1 0))
                 (not (and (= Y Z) (= X A1)))))
        (a!9 (or (not (= U 0))
                 (not (= S (- 1073741670)))
                 (not (and (= A1 T) (= Z S)))
                 (= L1 0)
                 (not (Proc15 A1 M1 E1 L1 0))
                 (not (and (= Y Z) (= X A1)))))
        (a!11 (or (not (<= O1 I1))
                  (= L1 0)
                  (not (and (= A1 P1) (= Z 0)))
                  (not (Proc15 A1 M1 E1 L1 0))
                  (not (and (= Y Z) (= X A1)))))
        (a!12 (or (<= O1 I1)
                  (= L1 0)
                  (not (and (= A1 P1) (= Z 0)))
                  (not (Proc15 A1 M1 E1 L1 0))
                  (not (and (= Y Z) (= X A1)))))
        (a!13 (or (not (= Q (- 1073741808)))
                  (not (and (= A1 P1) (= Z Q)))
                  (= L1 0)
                  (not (Proc15 A1 M1 E1 L1 0))
                  (not (and (= Y Z) (= X A1)))))
        (a!14 (or (not (<= O1 I1))
                  (= L1 0)
                  (not (and (= A1 G) (= Z 0)))
                  (not (Proc15 A1 M1 E1 L1 0))
                  (not (and (= Y Z) (= X A1)))))
        (a!15 (or (<= O1 I1)
                  (= L1 0)
                  (not (and (= A1 G) (= Z 0)))
                  (not (Proc15 A1 M1 E1 L1 0))
                  (not (and (= Y Z) (= X A1)))))
        (a!16 (or (not (= H 0))
                  (not (Proc9 G M1 E1 J))
                  (not (Proc7 G M1 E1 J))
                  (not (= F (- 1073741670)))
                  (not (and (= A1 G) (= Z F)))
                  (= L1 0)
                  (not (Proc15 A1 M1 E1 L1 0))
                  (not (and (= Y Z) (= X A1)))))
        (a!18 (or (not (= J 0))
                  (not (= E (- 1073741670)))
                  (not (and (= A1 I) (= Z E)))
                  (= L1 0)
                  (not (Proc15 A1 M1 E1 L1 0))
                  (not (and (= Y Z) (= X A1)))))
        (a!20 (or (not (= M 0))
                  (not (= D (- 1073741670)))
                  (not (Proc9 L M1 E1 O))
                  (not (Proc7 L M1 E1 O))
                  (not (and (= A1 L) (= Z D)))
                  (= L1 0)
                  (not (Proc15 A1 M1 E1 L1 0))
                  (not (and (= Y Z) (= X A1)))))
        (a!22 (or (not (= O 0))
                  (not (= C (- 1073741670)))
                  (not (and (= A1 N) (= Z C)))
                  (= L1 0)
                  (not (Proc15 A1 M1 E1 L1 0))
                  (not (and (= Y Z) (= X A1)))))
        (a!28 (or (not (= I1 0))
                  (not (= B (- 1073741811)))
                  (not (and (= A1 P1) (= Z B)))
                  (= L1 0)
                  (not (Proc15 A1 M1 E1 L1 0))
                  (not (and (= Y Z) (= X A1)))))
        (a!29 (or (not (= J1 0))
                  (not (= B (- 1073741811)))
                  (not (and (= A1 P1) (= Z B)))
                  (= L1 0)
                  (not (Proc15 A1 M1 E1 L1 0))
                  (not (and (= Y Z) (= X A1))))))
  (let ((a!4 (or (= G1 0)
                 (= L1 0)
                 a!3
                 (not (and (= A1 B1) (= Z 0)))
                 (not (Proc15 A1 M1 E1 L1 0))
                 (not (and (= Y Z) (= X A1)))))
        (a!10 (and (or (= U 0) (not (Proc20 T M1 E1 U R1 I1)) (and a!7 a!8))
                   a!9))
        (a!17 (and (or (= H 0)
                       (not (Proc20 G M1 E1 H R1 I1))
                       (not (Proc9 G M1 E1 J))
                       (not (Proc7 G M1 E1 J))
                       (and a!14 a!15))
                   a!16)))
  (let ((a!19 (and (or (= J 0)
                       (not (Proc8 I M1 E1 J 1 1))
                       (not (Proc18 I M1 E1 J 16 H G))
                       a!17)
                   a!18)))
  (let ((a!21 (and (or (= M 0)
                       (not (Proc9 L M1 E1 O))
                       (not (Proc7 L M1 E1 O))
                       (not (Proc5 L M1 E1 K I1 0 1 0 J I))
                       a!19)
                   a!20)))
  (let ((a!23 (and (or (= O 0)
                       (not (Proc8 N M1 E1 O 1 0))
                       (not (Proc18 N M1 E1 O 16 M L))
                       a!21)
                   a!22)))
  (let ((a!24 (and a!13
                   (or (= K1 0)
                       (= L1 0)
                       (not (Proc10 P1 M1 E1 P J1 1))
                       (not (Proc5 P1 M1 E1 P J1 0 1 0 O N))
                       a!23))))
  (let ((a!25 (and (or (= L1 0) (not (Proc20 P1 M1 E1 R R1 I1)) (and a!11 a!12))
                   (or (= K1 0) a!24))))
  (let ((a!26 (or (= K1 0) (and (or (= L1 0) a!6 a!10) (or (= K1 0) a!25)))))
  (let ((a!27 (or (= I1 0) (= K1 0) (and (or (= L1 0) a!2 (and a!4 a!5)) a!26))))
  (let ((a!30 (or (not E1)
                  (not (= R1 Q1))
                  (not a!1)
                  (not (= O1 (+ 1 N1)))
                  (not (Proc14 P1 M1 E1))
                  (not (Proc17 P1 M1 E1 L1 K1))
                  (= K1 0)
                  (and (or (= J1 0) (and a!27 a!28)) a!29))))
    (=> (not a!30) (Proc21 Q1 M1 E1 A L1 Y X))))))))))))))
(assert (forall ((A Int)
         (B Int)
         (C Int)
         (D Int)
         (E Int)
         (F Int)
         (G Int)
         (H Int)
         (I Int)
         (J Int)
         (E1 Bool))
  (let ((a!1 (and (not (<= H (+ 12 J))) (not (<= H I))))
        (a!2 (and (not (<= D (+ 1 E))) (not (<= D H))))
        (a!3 (and (or (= B 0) (not (Proc3 D F E1 B)) (not (= A D)))
                  (or (not (= B 0)) (not (= A D))))))
  (let ((a!4 (not (or (not E1)
                      (not (= J I))
                      (not a!1)
                      (= G 0)
                      (not (Proc14 H F E1))
                      (not (= E H))
                      (not a!2)
                      (not (Proc0 D F E1 J E))
                      (not (Proc6 D F E1 J C))
                      a!3))))
    (=> a!4 (Proc22 I F E1 G A))))))
(assert (forall ((A Int) (B Int) (E1 Bool)) (=> E1 (Proc23 B A E1))))
(assert (forall ((A Int) (B Int) (E1 Bool)) (=> E1 (Proc24 B A E1))))
(assert (forall ((A Int) (B Int) (C Int) (E1 Bool))
  (let ((a!1 (not (or (not E1) (not (= C 0))))))
    (=> a!1 (Proc25 B A E1 C)))))
(assert (forall ((A Int)
         (B Int)
         (C Int)
         (D Int)
         (E Int)
         (F Int)
         (G Int)
         (H Int)
         (I Int)
         (J Int)
         (K Int)
         (L Int)
         (E1 Bool)
         (S1 Bool)
         (T1 Bool)
         (U1 Bool))
  (let ((a!1 (not (and (not (<= L 0)) (Proc26 L K U1 J))))
        (a!2 (not (and (= D F) (= C G) (= S1 T1) (= B H)))))
  (let ((a!3 (or (= G 0) (not (and (= F E) (not T1))) a!2))
        (a!4 (or (not (and (= G 0) (= E1 U1)))
                 (not (and (= F A) (= T1 E1)))
                 a!2)))
  (let ((a!5 (and (or (= G 1) (and a!3 a!4)) (or (not (= G 1)) (and a!3 a!4)))))
  (let ((a!6 (not (or (not U1)
                      a!1
                      (not (Proc25 J K U1 I))
                      (not (Proc24 J I U1))
                      (not (Proc23 J I U1))
                      (not (Proc27 J I U1 H G))
                      a!5))))
    (=> a!6 (Proc28 L K U1 D C S1 B))))))))
(assert (forall ((A Int)
         (B Int)
         (C Int)
         (D Int)
         (E Int)
         (F Int)
         (G Int)
         (H Int)
         (I Int)
         (E1 Bool))
  (let ((a!1 (and (not (<= G (+ 1 I))) (not (<= G H))))
        (a!2 (not (and (= C 0) (= B E) (= A D)))))
  (let ((a!3 (and (or (not (= D 1)) a!2) (or (= D 1) a!2))))
  (let ((a!4 (not (or (not E1)
                      (not (= I H))
                      (not a!1)
                      (not (Proc13 G F E1 I 0 E D))
                      a!3))))
    (=> a!4 (Proc29 H F E1 C B A)))))))
(assert (forall ((A Int) (B Int) (C Int) (E1 Bool))
  (let ((a!1 (not (or (not E1) (not (= C 0))))))
    (=> a!1 (Proc30 B A E1 C)))))
(assert (forall ((A Int) (B Int) (C Int) (E1 Bool))
  (let ((a!1 (not (or (not E1) (not (= C 1))))))
    (=> a!1 (Proc31 B A E1 C)))))
(assert (forall ((A Int) (B Int) (C Int) (E1 Bool))
  (let ((a!1 (not (or (not E1) (not (= C 0))))))
    (=> a!1 (Proc32 B A E1 C)))))
(assert (forall ((A Int) (B Int) (C Int) (E1 Bool))
  (let ((a!1 (not (or (not E1) (not (= C 1))))))
    (=> a!1 (Proc33 B A E1 C)))))
(assert (forall ((A Int) (B Int) (C Int) (E1 Bool))
  (let ((a!1 (not (or (not E1) (not (= C 0))))))
    (=> a!1 (Proc34 B A E1 C)))))
(assert (forall ((A Int) (B Int) (C Int) (E1 Bool))
  (let ((a!1 (not (or (not E1) (not (= C 0))))))
    (=> a!1 (Proc35 B A E1 C)))))
(assert (forall ((A Int) (B Int) (C Int) (E1 Bool))
  (let ((a!1 (not (or (not E1) (not (= C 0))))))
    (=> a!1 (Proc36 B A E1 C)))))
(assert (forall ((A Int) (B Int) (C Int) (E1 Bool))
  (let ((a!1 (not (or (not E1) (not (= C 0))))))
    (=> a!1 (Proc37 B A E1 C)))))
(assert (forall ((A Int) (B Int) (C Int) (E1 Bool))
  (let ((a!1 (not (or (not E1) (not (= C 0))))))
    (=> a!1 (Proc38 B A E1 C)))))
(assert (forall ((A Int) (B Int) (C Int) (E1 Bool))
  (let ((a!1 (not (or (not E1) (not (= C 0))))))
    (=> a!1 (Proc39 B A E1 C)))))
(assert (forall ((A Int) (B Int) (C Int) (D Int) (E1 Bool))
  (let ((a!1 (or (not E1) (not (= D (- 1073741823))) (not (= C D)))))
    (=> (not a!1) (Proc40 B A E1 C)))))
(assert (forall ((A Int) (B Int) (C Int) (D Int) (E1 Bool)) (=> E1 (Proc15 D C E1 B A))))
(assert (forall ((A Int) (B Int) (C Int) (E1 Bool))
  (let ((a!1 (not (or (not E1) (not (= C 0))))))
    (=> a!1 (Proc41 B A E1 C)))))
(assert (forall ((A Int) (B Int) (C Int) (D Int) (E Int) (E1 Bool))
  (let ((a!1 (not (or (not E1) (= E 0) (not (= D C))))))
    (=> a!1 (Proc17 B A E1 E D)))))
(assert (forall ((A Int) (B Int) (C Int) (D Int) (E Int) (F Int) (G Int) (E1 Bool))
  (let ((a!1 (and (not (<= E (+ 1 G))) (not (<= E F)))))
  (let ((a!2 (or (not E1) (not (= G F)) (not a!1) (not (and (= D G) (= C E))))))
    (=> (not a!2) (Proc19 F B E1 A D C))))))
(assert (forall ((A Int)
         (B Int)
         (C Int)
         (D Int)
         (E Int)
         (F Int)
         (G Int)
         (H Int)
         (I Int)
         (J Int)
         (E1 Bool))
  (let ((a!1 (or (not (and (= J I) (= H 0))) (not (and (= G H) (= F J)))))
        (a!2 (and (not (<= D (+ 1 E))) (not (<= D I)))))
  (let ((a!3 (or (not (= E I))
                 (not a!2)
                 (not (and (= J D) (= H E)))
                 (not (and (= G H) (= F J))))))
    (=> (not (or (not E1) (and a!1 a!3))) (Proc18 I C E1 B A G F))))))
(assert (forall ((A Int) (B Int) (C Int) (D Int) (E Int) (E1 Bool))
  (=> E1 (Proc20 E D E1 C B A))))
(assert (forall ((A Int)
         (B Int)
         (C Int)
         (D Int)
         (E Int)
         (F Int)
         (G Int)
         (H Int)
         (I Int)
         (J Int)
         (K Int)
         (L Int)
         (M Int)
         (N Int)
         (O Int)
         (P Int)
         (Q Int)
         (R Int)
         (S Int)
         (T Int)
         (U Int)
         (V Int)
         (W Int)
         (X Int)
         (Y Int)
         (Z Int)
         (A1 Int)
         (B1 Int)
         (C1 Int)
         (E1 Bool))
  (let ((a!1 (or (= Z 0)
                 (not (Proc16 B1 A1 E1 Y C1 X))
                 (not (and (= W X) (= V B1)))
                 (not (Proc44 V A1 E1 W C1))
                 (= C1 0)
                 (not (and (= U W) (= T V)))))
        (a!2 (or (= Z 0)
                 (not (Proc16 B1 A1 E1 Y C1 S))
                 (not (and (= W S) (= V B1)))
                 (not (Proc44 V A1 E1 W C1))
                 (= C1 0)
                 (not (and (= U W) (= T V)))))
        (a!3 (or (= Z 0)
                 (not (Proc40 B1 A1 E1 R))
                 (not (and (= W R) (= V B1)))
                 (not (Proc44 V A1 E1 W C1))
                 (= C1 0)
                 (not (and (= U W) (= T V)))))
        (a!4 (or (= Z 0)
                 (not (Proc40 B1 A1 E1 Q))
                 (not (and (= W Q) (= V B1)))
                 (not (Proc44 V A1 E1 W C1))
                 (= C1 0)
                 (not (and (= U W) (= T V)))))
        (a!5 (or (= Z 0)
                 (not (Proc40 B1 A1 E1 P))
                 (not (and (= W P) (= V B1)))
                 (not (Proc44 V A1 E1 W C1))
                 (= C1 0)
                 (not (and (= U W) (= T V)))))
        (a!6 (or (= Z 0)
                 (not (Proc40 B1 A1 E1 O))
                 (not (and (= W O) (= V B1)))
                 (not (Proc44 V A1 E1 W C1))
                 (= C1 0)
                 (not (and (= U W) (= T V)))))
        (a!7 (or (= Z 0)
                 (not (Proc40 B1 A1 E1 N))
                 (not (and (= W N) (= V B1)))
                 (not (Proc44 V A1 E1 W C1))
                 (= C1 0)
                 (not (and (= U W) (= T V)))))
        (a!8 (or (not (Proc40 B1 A1 E1 M))
                 (not (and (= W M) (= V B1)))
                 (not (Proc44 V A1 E1 W C1))
                 (= C1 0)
                 (not (and (= U W) (= T V)))))
        (a!9 (or (= Z 0)
                 (not (Proc21 B1 A1 E1 Y C1 L K))
                 (not (and (= W L) (= V K)))
                 (not (Proc44 V A1 E1 W C1))
                 (= C1 0)
                 (not (and (= U W) (= T V)))))
        (a!10 (or (= Z 0)
                  (not (Proc40 B1 A1 E1 J))
                  (not (and (= W J) (= V B1)))
                  (not (Proc44 V A1 E1 W C1))
                  (= C1 0)
                  (not (and (= U W) (= T V)))))
        (a!11 (or (= Z 0)
                  (not (Proc40 B1 A1 E1 I))
                  (not (and (= W I) (= V B1)))
                  (not (Proc44 V A1 E1 W C1))
                  (= C1 0)
                  (not (and (= U W) (= T V)))))
        (a!12 (or (not (Proc40 B1 A1 E1 H))
                  (not (and (= W H) (= V B1)))
                  (not (Proc44 V A1 E1 W C1))
                  (= C1 0)
                  (not (and (= U W) (= T V)))))
        (a!13 (or (= Z 0)
                  (not (Proc40 B1 A1 E1 G))
                  (not (and (= W G) (= V B1)))
                  (not (Proc44 V A1 E1 W C1))
                  (= C1 0)
                  (not (and (= U W) (= T V)))))
        (a!14 (or (= Z 0)
                  (not (Proc40 B1 A1 E1 F))
                  (not (and (= W F) (= V B1)))
                  (not (Proc44 V A1 E1 W C1))
                  (= C1 0)
                  (not (and (= U W) (= T V)))))
        (a!15 (or (= Z 0)
                  (not (Proc40 B1 A1 E1 E))
                  (not (and (= W E) (= V B1)))
                  (not (Proc44 V A1 E1 W C1))
                  (= C1 0)
                  (not (and (= U W) (= T V)))))
        (a!16 (or (not (Proc40 B1 A1 E1 D))
                  (not (and (= W D) (= V B1)))
                  (not (Proc44 V A1 E1 W C1))
                  (= C1 0)
                  (not (and (= U W) (= T V)))))
        (a!17 (or (= Z 0)
                  (not (Proc40 B1 A1 E1 C))
                  (not (and (= W C) (= V B1)))
                  (not (Proc44 V A1 E1 W C1))
                  (= C1 0)
                  (not (and (= U W) (= T V)))))
        (a!18 (or (not (= B 1))
                  (= B 0)
                  (= Z 0)
                  (not (Proc40 B1 A1 E1 C))
                  (not (and (= W C) (= V B1)))
                  (not (Proc44 V A1 E1 W C1))
                  (= C1 0)
                  (not (and (= U W) (= T V))))))
  (let ((a!19 (and (or (= Z 0) (and a!17 a!18))
                   (or (not (= A 1)) (= A 0) (= Z 0) (and a!17 a!18)))))
  (let ((a!20 (or (not E1)
                  (= C1 0)
                  (not (Proc42 B1 A1 E1 C1))
                  (= Z 0)
                  (not (Proc43 B1 A1 E1))
                  (and a!1
                       a!2
                       a!3
                       a!4
                       a!5
                       a!6
                       a!7
                       a!8
                       a!9
                       a!10
                       a!11
                       a!12
                       a!13
                       a!14
                       a!15
                       a!16
                       (or (= Z 0) a!19)))))
    (=> (not a!20) (Proc45 B1 A1 E1 Y C1 U T)))))))
(assert (forall ((A Int) (B Int) (C Int) (D Int) (E Int) (E1 Bool))
  (let ((a!1 (not (or (not E1)
                      (not (Proc46 E D E1))
                      (not (Proc40 E D E1 C))
                      (not (Proc47 E D E1))))))
    (=> a!1 (Proc48 E D E1 B A)))))
(assert (forall ((A Int) (B Int) (C Int) (D Int) (E Int) (E1 Bool))
  (let ((a!1 (not (or (not E1) (not (Proc22 E D E1 C B)) (not (= A B))))))
    (=> a!1 (Proc49 E D E1 C A)))))
(assert (forall ((A Int) (B Int) (C Int) (E1 Bool))
  (=> (not (or (not E1) (= C 0))) (Proc42 B A E1 C))))
(assert (forall ((A Int) (B Int) (E1 Bool)) (=> E1 (Proc14 B A E1))))
(assert (forall ((A Int)
         (B Int)
         (C Int)
         (D Int)
         (E Int)
         (F Int)
         (G Int)
         (H Int)
         (I Int)
         (J Int)
         (K Int)
         (L Int)
         (M Int)
         (N Int)
         (O Int)
         (P Int)
         (Q Int)
         (R Int)
         (S Int)
         (T Int)
         (U Int)
         (V Int)
         (W Int)
         (X Int)
         (Y Int)
         (Z Int)
         (A1 Int)
         (B1 Int)
         (C1 Int)
         (D1 Int)
         (E1 Bool)
         (F1 Int)
         (G1 Int))
  (let ((a!1 (and (not (<= D1 (+ 12 G1))) (not (<= D1 F1))))
        (a!2 (or (not (and (= R 1) (= Q S))) (not (and (= P Q) (= O R)))))
        (a!3 (or (= B1 0)
                 (not (Proc50 S R E1))
                 (not (Proc45 S R E1 K J I H))
                 (not (= Q H))
                 (not (and (= P Q) (= O R)))))
        (a!4 (or (not (and (= B1 0) (= Q S))) (not (and (= P Q) (= O R)))))
        (a!5 (or (= A1 0)
                 (not (Proc50 S R E1))
                 (not (and (Proc48 S R E1 G F) (= Q S)))
                 (not (and (= P Q) (= O R)))))
        (a!6 (or (not (and (= A1 0) (= Q S))) (not (and (= P Q) (= O R)))))
        (a!7 (or (not (= Q S)) (not (and (= P Q) (= O R)))))
        (a!8 (or (not (Proc4 S R E1 E G1 D C))
                 (not (= Q C))
                 (not (and (= P Q) (= O R)))))
        (a!9 (or (not (and (Proc49 S R E1 B A) (= Q A)))
                 (not (and (= P Q) (= O R))))))
  (let ((a!10 (and a!2
                   (or (= R 1)
                       (not (Proc35 S R E1 N))
                       (not (Proc36 S R E1 M))
                       (not (Proc33 S R E1 L))
                       (and a!3 a!4 a!5 a!6 a!7 a!8 a!9)))))
  (let ((a!11 (not (or (not E1)
                       (not (= G1 F1))
                       (not a!1)
                       (not (Proc31 D1 C1 E1 B1))
                       (not (Proc38 D1 C1 E1 A1))
                       (not (Proc32 D1 C1 E1 Z))
                       (not (Proc37 D1 C1 E1 Y))
                       (not (Proc30 D1 C1 E1 X))
                       (not (Proc34 D1 C1 E1 W))
                       (not (Proc41 D1 C1 E1 V))
                       (not (Proc39 D1 C1 E1 U))
                       (not (Proc29 D1 C1 E1 T S R))
                       a!10))))
    (=> a!11 (Proc27 F1 C1 E1 P O)))))))
(assert (forall ((A Int) (B Int) (E1 Bool)) (=> E1 (Proc43 B A E1))))
(assert (forall ((A Int) (B Int) (C Int) (D Int) (E1 Bool)) (=> E1 (Proc44 D C E1 B A))))
(assert (forall ((A Int) (B Int) (E1 Bool)) (=> E1 (Proc50 B A E1))))
(assert (forall ((A Int) (B Int) (E1 Bool)) (=> E1 (Proc46 B A E1))))
(assert (forall ((A Int) (B Int) (E1 Bool)) (=> E1 (Proc47 B A E1))))
(assert (forall ((A Int)
         (B Int)
         (C Int)
         (D Int)
         (E Int)
         (F Int)
         (G Int)
         (H Int)
         (I Int)
         (J Int)
         (K Int)
         (L Int)
         (M Int)
         (N Int)
         (O Int)
         (P Int)
         (Q Int)
         (R Int)
         (S Int)
         (T Int)
         (U Int)
         (V Int)
         (W Int)
         (X Int)
         (Y Int)
         (Z Int)
         (A1 Int)
         (B1 Int)
         (C1 Int)
         (D1 Int)
         (E1 Bool)
         (F1 Int)
         (G1 Int)
         (H1 Int)
         (I1 Int)
         (J1 Int)
         (K1 Int)
         (L1 Int)
         (M1 Int)
         (N1 Int)
         (O1 Int)
         (P1 Int)
         (Q1 Int)
         (R1 Int)
         (V1 Int)
         (W1 Int)
         (X1 Int)
         (Y1 Int)
         (Z1 Int)
         (A2 Int)
         (B2 Int)
         (C2 Int))
  (let ((a!1 (and (= C2 B2)
                  (not (<= A2 (+ 4 C2)))
                  (not (<= A2 B2))
                  (= Z1 A2)
                  (not (<= Y1 (+ 332 Z1)))
                  (not (<= Y1 A2))
                  (= X1 Y1)
                  (not (<= W1 (+ 4 X1)))))
        (a!2 (and (not (<= W1 Y1))
                  (= V1 W1)
                  (not (<= R1 (+ 536 V1)))
                  (not (<= R1 W1))
                  (= Q1 R1)
                  (not (<= P1 (+ 240 Q1)))
                  (not (<= P1 R1))
                  (= O1 P1)
                  (not (<= N1 (+ 240 O1)))
                  (not (<= N1 P1))
                  (= M1 N1)
                  (not (<= L1 (+ 240 M1)))
                  (not (<= L1 N1))
                  (= K1 L1)
                  (not (<= J1 (+ 4 K1)))
                  (not (<= J1 L1))
                  (= I1 J1)
                  (not (<= H1 (+ 536 I1)))
                  (not (<= H1 J1))
                  (= G1 H1)
                  (not (<= F1 (+ 332 G1)))
                  (not (<= F1 H1))
                  (= D1 F1)
                  (not (<= C1 (+ 240 D1)))
                  (not (<= C1 F1))
                  (= B1 C1)
                  (not (<= A1 (+ 240 B1)))
                  (not (<= A1 C1))
                  (= Z A1)
                  (not (<= Y (+ 332 Z)))
                  (not (<= Y A1))
                  (= X Y)
                  (not (<= W (+ 4 X)))
                  (not (<= W Y))
                  (= V W)
                  (not (<= U (+ 68 V)))
                  (not (<= U W))
                  (= T U)
                  (not (<= S (+ 240 T)))
                  (not (<= S U))
                  (= R S)
                  (not (<= Q (+ 240 R)))
                  (not (<= Q S))
                  (= P Q)
                  (not (<= O (+ 240 P)))
                  (not (<= O Q))
                  (= N O)
                  (not (<= M (+ 240 N)))
                  (not (<= M O))
                  (= L M)
                  (not (<= K (+ 240 L)))
                  (not (<= K M))
                  (= J K)
                  (not (<= I (+ 40 J)))
                  (not (<= I K))
                  (= H I)
                  (not (<= G (+ 332 H)))
                  (not (<= G I))
                  (= F G)
                  (not (<= E (+ 4 F)))
                  (not (<= E G))
                  (= D E)
                  (not (<= C (+ 40 D)))
                  (not (<= C E)))))
  (let ((a!3 (not (or (not E1) (not a!1) (not a!2) (not (= B C))))))
    (=> a!3 (Proc26 B2 A E1 B))))))
(assert (forall ((A Int)
         (B Int)
         (C Int)
         (D Int)
         (E Int)
         (F Int)
         (G Int)
         (H Int)
         (E1 Bool)
         (S1 Bool)
         (T1 Bool))
  (let ((a!1 (or (not T1) (not (and (Proc28 H G true F E S1 D) (not S1))))))
    (=> (not a!1) (Proc51 H G T1 C E1 B A)))))
(assert (let ((a!1 (exists ((V0 Int)
                    (V1 Int)
                    (V2 Bool)
                    (V3 Int)
                    (V4 Bool)
                    (V5 Int)
                    (V6 Int))
             (not (=> (and (Proc51 V0 V1 V2 V3 V4 V5 V6) (not false)) false)))))
  (not a!1)))

(check-sat)
